cost: 1126.87
Route 1:           0    8   27   30   44   38   15    0
Route 2:           0   17   49   43    0
Route 3:           0   24   13    3    4   12   14    0
Route 4:           0   26    2   42   37   22   45    0
Route 5:           0   32    6    9   36    0
Route 6:           0   35   21   33   31    1   46   29   11   25    0
Route 7:           0   40   16   47    5   28    0
Route 8:           0   48   41    7   19   34    0
Route 9:           0   50   39   10   23   20   18    0
